unsat
(:added-eqs                       1216109
 :arith-eq-adapter                2334
 :arith-bound-propagations-lp     6015
 :arith-branch                    87
 :arith-conflicts                 15004
 :arith-cube-calls                27
 :arith-diseq                     72703
 :arith-fixed-eqs                 123147
 :arith-gcd-calls                 1020
 :arith-gcd-conflict              15
 :arith-gomory-cuts               35
 :arith-grobner-calls             651
 :arith-grobner-conflicts         529
 :arith-hnf-calls                 3
 :arith-horner-calls              165
 :arith-horner-conflicts          12
 :arith-horner-cross-nested-forms 79736
 :arith-lower                     447475
 :arith-make-feasible             151492
 :arith-max-columns               5226
 :arith-max-rows                  2046
 :arith-nla-add-bounds            156
 :arith-nla-lemmas                3645
 :arith-nla-propagate-bounds      10056
 :arith-nla-propagate-eq          240143
 :arith-nra-calls                 39
 :arith-offset-eqs                200038
 :arith-patches                   1005
 :arith-patches-success           888
 :arith-upper                     744652
 :binary-propagations             1767383
 :cnf-encoding-aux-vars           60
 :conflicts                       3503
 :decisions                       1156787
 :del-clause                      9902
 :elim-unconstrained              431
 :final-checks                    2153
 :max-memory                      157.29
 :memory                          101.86
 :minimized-lits                  13594
 :mk-bool-var                     26256
 :mk-clause                       13406
 :mk-clause-binary                46589
 :nlsat-conflicts                 312
 :nlsat-decisions                 9353
 :nlsat-propagations              235869
 :nlsat-stages                    69310
 :num-allocs                      92602678808.00
 :num-checks                      2
 :propagations                    2191757
 :restarts                        28
 :rlimit-count                    41640579
 :solve-eqs-elim-vars             389
 :solve-eqs-steps                 3425
 :time                            27.65
 :total-time                      27.68)
